(declare-fun e () String)
(declare-fun c () String)
(declare-fun g () String)
(declare-fun b () String)
(declare-fun d () String)
(declare-fun f () String)
(declare-fun a () String)
(declare-fun h () String)
(assert (= (str.++ "dh" a g c g) (str.++ "d" b "dfe")))
(assert (= a (str.++ "h" e e)))
(assert (= (str.++ f b d "c") (str.++ "bb" h)))

(check-sat)
